c description: tiling of 
c generator: CNFgen (0.9.0)
c copyright: (C) 2012-2020 Massimo Lauria <massimo.lauria@uniroma1.it>
c url: https://massimolauria.net/cnfgen
c
p cnf 20 88
-1 -11 0
-1 -13 0
-11 -13 0
1 11 13 0
-1 -13 0
1 13 0
-2 -3 0
-2 -9 0
-3 -9 0
2 3 9 0
-2 -3 0
-2 -10 0
-2 -15 0
-3 -10 0
-3 -15 0
-10 -15 0
2 3 10 15 0
-2 -5 0
-2 -15 0
-2 -20 0
-5 -15 0
-5 -20 0
-15 -20 0
2 5 15 20 0
-2 -7 0
-2 -8 0
-2 -10 0
-7 -8 0
-7 -10 0
-8 -10 0
2 7 8 10 0
-3 -9 0
-3 -12 0
-3 -16 0
-9 -12 0
-9 -16 0
-12 -16 0
3 9 12 16 0
4 0
-5 -15 0
5 15 0
-6 -7 0
-6 -15 0
-6 -20 0
-7 -15 0
-7 -20 0
-15 -20 0
6 7 15 20 0
-6 -18 0
6 18 0
-6 -18 0
-6 -20 0
-18 -20 0
6 18 20 0
-7 -8 0
-7 -9 0
-7 -12 0
-7 -16 0
-8 -9 0
-8 -12 0
-8 -16 0
-9 -12 0
-9 -16 0
-12 -16 0
7 8 9 12 16 0
-7 -10 0
-7 -16 0
-7 -20 0
-10 -16 0
-10 -20 0
-16 -20 0
7 10 16 20 0
-8 -10 0
-8 -16 0
-10 -16 0
8 10 16 0
-9 -12 0
-9 -16 0
-12 -16 0
9 12 16 0
-11 -13 0
-11 -19 0
-13 -19 0
11 13 19 0
-11 -19 0
11 19 0
-14 -17 0
14 17 0